num_stars = 2;
dim = 10;
sectors = [|
1, 1, 1, 1, 2, 2, 3, 3, 3, 3|
4, 4, 4, 1, 2, 2, 3, 3, 3, 3|
4, 5, 5, 5, 2, 2, 3, 3, 3, 3|
4, 5, 5, 5, 5, 2, 3, 3, 3, 3|
4, 5, 5, 5, 5, 6, 6, 6, 7, 7|
8, 8, 8, 5, 5, 6, 6, 6, 7, 7|
8, 8, 8, 8, 5, 9, 9, 6, 6, 7|
8, 8, 8, 8, 9, 9, 10, 10, 10, 7|
8, 8, 8, 8, 9, 9, 10, 10, 10, 10|
8, 8, 8, 8, 9, 9, 9, 9, 10, 10|
];